(set-logic QF_NRA)
(declare-const X_0 Real)
(declare-const X_1 Real)
(declare-const X_2 Real)
(declare-const X_3 Real)
(declare-const H_0_0 Real)
(declare-const H_0_1 Real)
(declare-const H_0_2 Real)
(declare-const H_0_3 Real)
(declare-const H_0_4 Real)
(declare-const H_0_5 Real)
(declare-const H_0_6 Real)
(declare-const H_0_7 Real)
(declare-const H_0_8 Real)
(declare-const H_0_9 Real)
(declare-const H_0_10 Real)
(declare-const H_0_11 Real)
(declare-const H_0_12 Real)
(declare-const H_0_13 Real)
(declare-const H_0_14 Real)
(declare-const H_0_15 Real)
(assert (= H_0_0 (ite (>= (+ (* X_0 1.0) (* X_1 0.0) (* X_2 0.0) (* X_3 -1.0) 0.0) 0) (+ (* X_0 1.0) (* X_1 0.0) (* X_2 0.0) (* X_3 -1.0) 0.0) 0)))
(assert (= H_0_1 (ite (>= (+ (* X_0 -1.0) (* X_1 0.0) (* X_2 1.0) (* X_3 -1.0) 0.0) 0) (+ (* X_0 -1.0) (* X_1 0.0) (* X_2 1.0) (* X_3 -1.0) 0.0) 0)))
(assert (= H_0_2 (ite (>= (+ (* X_0 -1.0) (* X_1 1.0) (* X_2 1.0) (* X_3 1.0) -2.0) 0) (+ (* X_0 -1.0) (* X_1 1.0) (* X_2 1.0) (* X_3 1.0) -2.0) 0)))
(assert (= H_0_3 (ite (>= (+ (* X_0 -1.0) (* X_1 0.0) (* X_2 -1.0) (* X_3 -1.0) 1.0) 0) (+ (* X_0 -1.0) (* X_1 0.0) (* X_2 -1.0) (* X_3 -1.0) 1.0) 0)))
(assert (= H_0_4 (ite (>= (+ (* X_0 1.0) (* X_1 0.0) (* X_2 1.0) (* X_3 1.0) -2.0) 0) (+ (* X_0 1.0) (* X_1 0.0) (* X_2 1.0) (* X_3 1.0) -2.0) 0)))
(assert (= H_0_5 (ite (>= (+ (* X_0 1.0) (* X_1 0.0) (* X_2 -1.0) (* X_3 1.0) -1.0) 0) (+ (* X_0 1.0) (* X_1 0.0) (* X_2 -1.0) (* X_3 1.0) -1.0) 0)))
(assert (= H_0_6 (ite (>= (+ (* X_0 -1.0) (* X_1 1.0) (* X_2 -1.0) (* X_3 1.0) -1.0) 0) (+ (* X_0 -1.0) (* X_1 1.0) (* X_2 -1.0) (* X_3 1.0) -1.0) 0)))
(assert (= H_0_7 (ite (>= (+ (* X_0 -1.0) (* X_1 -1.0) (* X_2 0.0) (* X_3 1.0) 0.0) 0) (+ (* X_0 -1.0) (* X_1 -1.0) (* X_2 0.0) (* X_3 1.0) 0.0) 0)))
(assert (= H_0_8 (ite (>= (+ (* X_0 1.0) (* X_1 0.0) (* X_2 0.0) (* X_3 0.0) 0.0) 0) (+ (* X_0 1.0) (* X_1 0.0) (* X_2 0.0) (* X_3 0.0) 0.0) 0)))
(assert (= H_0_9 (ite (>= (+ (* X_0 0.0) (* X_1 1.0) (* X_2 0.0) (* X_3 0.0) 0.0) 0) (+ (* X_0 0.0) (* X_1 1.0) (* X_2 0.0) (* X_3 0.0) 0.0) 0)))
(assert (= H_0_10 (ite (>= (+ (* X_0 0.0) (* X_1 0.0) (* X_2 1.0) (* X_3 0.0) 0.0) 0) (+ (* X_0 0.0) (* X_1 0.0) (* X_2 1.0) (* X_3 0.0) 0.0) 0)))
(assert (= H_0_11 (ite (>= (+ (* X_0 0.0) (* X_1 0.0) (* X_2 0.0) (* X_3 1.0) 0.0) 0) (+ (* X_0 0.0) (* X_1 0.0) (* X_2 0.0) (* X_3 1.0) 0.0) 0)))
(assert (= H_0_12 (ite (>= (+ (* X_0 2.0) (* X_1 0.0) (* X_2 0.0) (* X_3 0.0) -1.0) 0) (+ (* X_0 2.0) (* X_1 0.0) (* X_2 0.0) (* X_3 0.0) -1.0) 0)))
(assert (= H_0_13 (ite (>= (+ (* X_0 0.0) (* X_1 2.0) (* X_2 0.0) (* X_3 0.0) -1.0) 0) (+ (* X_0 0.0) (* X_1 2.0) (* X_2 0.0) (* X_3 0.0) -1.0) 0)))
(assert (= H_0_14 (ite (>= (+ (* X_0 0.0) (* X_1 0.0) (* X_2 2.0) (* X_3 0.0) -1.0) 0) (+ (* X_0 0.0) (* X_1 0.0) (* X_2 2.0) (* X_3 0.0) -1.0) 0)))
(assert (= H_0_15 (ite (>= (+ (* X_0 0.0) (* X_1 0.0) (* X_2 0.0) (* X_3 2.0) -1.0) 0) (+ (* X_0 0.0) (* X_1 0.0) (* X_2 0.0) (* X_3 2.0) -1.0) 0)))
(declare-const H_2_0 Real)
(declare-const H_2_1 Real)
(assert (= H_2_0 (+ (* H_0_0 -1.0) (* H_0_1 -1.0) (* H_0_2 -1.0) (* H_0_3 -1.0) (* H_0_4 -1.0) (* H_0_5 -1.0) (* H_0_6 -1.0) (* H_0_7 -1.0) (* H_0_8 0.0) (* H_0_9 0.0) (* H_0_10 0.0) (* H_0_11 0.0) (* H_0_12 0.0) (* H_0_13 0.0) (* H_0_14 0.0) (* H_0_15 0.0) 1.0)))
(assert (= H_2_1 (+ (* H_0_0 0.0) (* H_0_1 0.0) (* H_0_2 0.0) (* H_0_3 0.0) (* H_0_4 0.0) (* H_0_5 0.0) (* H_0_6 0.0) (* H_0_7 0.0) (* H_0_8 1.0) (* H_0_9 1.0) (* H_0_10 1.0) (* H_0_11 1.0) (* H_0_12 -1.0) (* H_0_13 -1.0) (* H_0_14 -1.0) (* H_0_15 -1.0) 0.0)))
(declare-const Y_0 Real)
(assert (= Y_0 H_2_0))
(declare-const Y_1 Real)
(assert (= Y_1 H_2_1))
(assert (<= X_0 1.0))
(assert (>= X_0 0.0))
(assert (<= X_1 1.0))
(assert (>= X_1 0.0))
(assert (<= X_2 1.0))
(assert (>= X_2 0.0))
(assert (<= X_3 1.0))
(assert (>= X_3 0.0))
(assert (>= Y_0 1.0))
(assert (<= Y_1 0.0))
(check-sat)
(get-model)